
Gurobi 11.0.3 (linux64) logging started Mon Aug 25 15:03:38 2025

Set parameter LogFile to value "/home/yihong/Coding/OR_SUC/SUC_epstheta_results_bigM100000_thread4/case24_ieee_rts_theta0.1_epsilon0.1_gurobi_seed120000_num_gen100_N_WDR50_load_scaling_factor1_proposed_theta_T6quadra_cost_bc1.03.txt"
Set parameter TimeLimit to value 3600
Gurobi Optimizer version 11.0.3 build v11.0.3rc0 (linux64 - "Ubuntu 20.04.6 LTS")

CPU model: AMD EPYC 7532 32-Core Processor, instruction set [SSE2|AVX|AVX2]
Thread count: 64 physical cores, 128 logical processors, using up to 4 threads

Academic license 2399124 - for non-commercial use only - registered to yi___@ed.ac.uk
Optimize a model with 13966 rows, 7491 columns and 327526 nonzeros
Model fingerprint: 0x5894bdad
Model has 600 quadratic constraints
Variable types: 6891 continuous, 600 integer (600 binary)
Coefficient statistics:
  Matrix range     [3e-04, 2e+03]
  QMatrix range    [2e-03, 8e-03]
  QLMatrix range   [2e-01, 6e+01]
  Objective range  [1e+00, 1e+00]
  Bounds range     [1e+00, 1e+00]
  RHS range        [1e+00, 9e+03]
Presolve removed 11581 rows and 3326 columns
Presolve time: 0.11s
Presolved: 2385 rows, 4165 columns, 14095 nonzeros
Presolved model has 600 quadratic constraint(s)
Variable types: 3565 continuous, 600 integer (600 binary)

Root relaxation: objective 7.194398e+03, 1796 iterations, 0.03 seconds (0.03 work units)

    Nodes    |    Current Node    |     Objective Bounds      |     Work
 Expl Unexpl |  Obj  Depth IntInf | Incumbent    BestBd   Gap | It/Node Time

     0     0 7194.39755    0    6          - 7194.39755      -     -    0s
H    0     0                    171794.08562 7194.39755  95.8%     -    0s
     0     0 63621.1978    0    6 171794.086 63621.1978  63.0%     -    0s
     0     0 149359.645    0   12 171794.086 149359.645  13.1%     -    0s
     0     0 149371.503    0    6 171794.086 149371.503  13.1%     -    0s
     0     0 149371.738    0    6 171794.086 149371.738  13.1%     -    0s
     0     0 149371.791    0   18 171794.086 149371.791  13.1%     -    0s
     0     0 149371.839    0   18 171794.086 149371.839  13.1%     -    0s
     0     2 149371.846    0   18 171794.086 149371.846  13.1%     -    1s
H   55    67                    149399.44124 149373.075  0.02%  10.3    1s
*   55    67              13    149399.44124 149373.075  0.02%  10.8    1s

Cutting planes:
  Implied bound: 9
  MIR: 2
  Flow cover: 1

Explored 68 nodes (5713 simplex iterations) in 2.02 seconds (1.62 work units)
Thread count was 4 (of 128 available processors)

Solution count 3: 149399 149399 171794 

Optimal solution found (tolerance 1.00e-03)
Warning: max constraint violation (3.7171e-08) exceeds tolerance
Best objective 1.493994412380e+05, best bound 1.493730745285e+05, gap 0.0176%

Gurobi 11.0.3 (linux64) logging started Mon Aug 25 15:03:41 2025

Set parameter LogFile to value "/home/yihong/Coding/OR_SUC/SUC_epstheta_results_bigM100000_thread4/case24_ieee_rts_theta0.1_epsilon0.1_gurobi_seed120000_num_gen100_N_WDR50_load_scaling_factor1_proposed_theta_T6quadra_cost_bc1.03.txt"
Set parameter TimeLimit to value 3600
Gurobi Optimizer version 11.0.3 build v11.0.3rc0 (linux64 - "Ubuntu 20.04.6 LTS")

CPU model: AMD EPYC 7532 32-Core Processor, instruction set [SSE2|AVX|AVX2]
Thread count: 64 physical cores, 128 logical processors, using up to 4 threads

Academic license 2399124 - for non-commercial use only - registered to yi___@ed.ac.uk
Optimize a model with 13967 rows, 7492 columns and 329387 nonzeros
Model fingerprint: 0xb0116abf
Model has 600 quadratic constraints
Variable types: 6892 continuous, 600 integer (600 binary)
Coefficient statistics:
  Matrix range     [3e-04, 2e+03]
  QMatrix range    [2e-03, 8e-03]
  QLMatrix range   [2e-01, 6e+01]
  Objective range  [1e+00, 1e+00]
  Bounds range     [1e-01, 1e+00]
  RHS range        [1e+00, 2e+05]
Presolve removed 10554 rows and 2820 columns
Presolve time: 0.10s
Presolved: 3413 rows, 4672 columns, 18886 nonzeros
Presolved model has 600 quadratic constraint(s)
Variable types: 4068 continuous, 604 integer (604 binary)

Root relaxation: objective 1.172266e+01, 4180 iterations, 0.09 seconds (0.09 work units)

    Nodes    |    Current Node    |     Objective Bounds      |     Work
 Expl Unexpl |  Obj  Depth IntInf | Incumbent    BestBd   Gap | It/Node Time

     0     0   11.72266    0    6          -   11.72266      -     -    0s
     0     0    2.32852    0   12          -    2.32852      -     -    0s
     0     0    2.32837    0   12          -    2.32837      -     -    0s
     0     0    0.95542    0    6          -    0.95542      -     -    0s
     0     0    0.95433    0    6          -    0.95433      -     -    0s
     0     0    0.95411    0   12          -    0.95411      -     -    0s
     0     0    0.95409    0   12          -    0.95409      -     -    0s
H    0     0                       0.9432876    0.95409  1.15%     -    0s
     0     2    0.95409    0   12    0.94329    0.95409  1.15%     -    0s
H   27    32                       0.9512752    0.95380  0.27%   7.3    1s
H   81    17                       0.9516210    0.95359  0.21%   9.5    1s
*   81    17               8       0.9516210    0.95359  0.21%  10.7    1s

Cutting planes:
  Gomory: 3
  Implied bound: 9
  MIR: 4
  Flow cover: 2
  RLT: 4

Explored 96 nodes (9177 simplex iterations) in 1.28 seconds (1.40 work units)
Thread count was 4 (of 128 available processors)

Solution count 3: 0.951621 0.951275 0.943288 

Optimal solution found (tolerance 1.00e-03)
Warning: max constraint violation (1.7903e-09) exceeds tolerance
Best objective 9.516210473196e-01, best bound 9.525556554556e-01, gap 0.0982%
